c Random 2 Leveled Graph
c 3 Rows, 8 columns, capacities in range [0, 100]
p max 26 69
n 1 s
n 26 t
a 1 4 300
a 1 3 300
a 1 2 300
a 2 5 26
a 2 6 50
a 2 7 34
a 3 7 69
a 3 6 13
a 3 5 50
a 4 5 90
a 4 6 8
a 4 7 81
a 5 10 68
a 5 8 15
a 5 9 100
a 6 10 27
a 6 8 40
a 6 9 37
a 7 10 28
a 7 9 11
a 7 8 71
a 8 12 18
a 8 11 16
a 8 13 87
a 9 13 36
a 9 11 43
a 9 12 45
a 10 11 64
a 10 12 22
a 10 13 16
a 11 14 15
a 11 15 59
a 11 16 60
a 12 14 49
a 12 16 86
a 12 15 4
a 13 15 58
a 13 16 41
a 13 14 1
a 14 18 84
a 14 17 61
a 14 19 2
a 15 18 24
a 15 19 12
a 15 17 73
a 16 19 13
a 16 18 63
a 16 17 81
a 17 22 80
a 17 20 66
a 17 21 48
a 18 22 12
a 18 20 28
a 18 21 14
a 19 22 19
a 19 20 90
a 19 21 99
a 20 25 6
a 20 24 39
a 20 23 21
a 21 25 8
a 21 24 74
a 21 23 30
a 22 23 57
a 22 25 93
a 22 24 4
a 23 26 300
a 24 26 300
a 25 26 300
